p tw 56 61
1 2
2 13
3 4
3 7
4 5
5 6
5 21
6 48
7 8
8 9
9 10
10 11
11 12
12 14
13 24
14 15
15 16
16 17
17 18
18 19
19 20
19 32
20 21
21 22
22 23
23 25
24 35
25 26
25 27
26 51
27 28
28 29
29 30
30 31
31 32
32 33
33 34
34 36
35 46
36 37
37 38
38 39
39 40
40 41
40 17
41 42
42 43
43 44
43 48
44 45
45 47
46 53
47 51
48 49
49 50
50 51
51 52
53 54
54 55
55 56
56 3
